500
1000
799
799
798
797
797
795
795
794
793
793
791
789
789
786
786
786
785
784
779
777
776
772
771
770
769
763
760
757
756
756
756
754
752
752
750
748
747
745
745
744
744
743
742
741
739
738
736
731
728
728
728
728
727
727
723
722
722
721
721
720
719
716
715
715
715
712
712
709
708
707
705
702
701
699
698
698
695
693
692
691
688
687
685
681
679
677
676
675
673
673
672
672
671
670
670
666
665
665
664
662
661
660
659
657
657
657
656
655
654
652
649
649
646
644
643
643
639
638
637
636
634
634
633
632
629
627
626
625
623
619
618
614
614
613
613
613
610
610
610
609
606
605
600
600
599
598
598
597
594
592
592
592
591
591
590
588
587
586
586
584
583
580
580
580
579
578
578
575
572
569
567
561
558
558
557
554
554
553
552
548
548
548
547
547
546
545
545
542
538
538
536
534
532
530
530
529
528
525
525
525
523
523
522
522
520
518
518
517
517
515
515
514
512
510
510
507
506
506
505
503
501
500
498
497
496
496
493
493
493
492
491
489
487
486
486
486
484
484
482
480
478
476
476
475
474
474
473
470
469
467
455
455
452
452
450
450
449
447
447
446
446
444
443
443
442
441
439
438
437
437
437
434
434
434
432
431
427
425
424
419
416
415
415
413
413
412
411
409
409
406
406
405
404
404
404
402
400
392
392
391
390
388
384
383
380
378
377
377
376
375
372
372
370
370
367
365
364
362
361
361
360
358
358
357
355
354
353
349
349
348
344
343
339
338
337
335
333
332
331
330
328
328
326
325
324
322
321
321
320
319
318
318
318
317
315
312
311
311
311
310
310
307
305
305
304
304
304
303
299
297
294
294
292
290
287
287
285
284
281
280
278
277
271
271
269
269
269
268
268
268
267
267
265
262
261
260
258
253
251
251
250
250
247
243
242
241
240
238
232
231
228
227
225
223
221
221
220
218
218
217
213
211
211
210
209
205
205
205
203
200
195
189
189
188
187
185
183
179
178
178
177
177
176
175
173
172
170
166
162
162
161
160
160
159
155
154
153
152
150
148
146
145
142
141
141
139
138
137
137
137
136
135
133
132
132
131
130
129
128
127
125
123
123
122
122
119
118
117
114
112
109
106
106
105
105
103
103
103
102
101
